
(set-logic ALL) 

(declare-datatype MyList ((Nil) (Cons (head Real) (tail MyList)) )) 
(declare-fun l0 () MyList) 
(declare-fun l1 () MyList) 
(declare-fun l2 () MyList) 
(declare-fun l3 () MyList) 
(declare-fun i0 () Real) 
(declare-fun i1 () Real) 
(assert (= l1 l3) )
(assert (= l2 l0) )
(assert (is-Cons l0) )
(assert (not (= l3 l2)) )
(assert (is-Nil l1) )
(assert (not (= l2 Nil)) )
(assert (not (= l2 Nil)) )
(assert (= l2 Nil) )
(check-sat)
